1302.53,43.47,52.1
1289.17,43.93,52.64
1343.46,42.15,50.52
1444.85,39.19,46.97
1416.9,39.97,47.9
1437.15,39.4,47.22
1342.58,42.18,50.55
1409.42,40.18,48.15
1281.63,44.18,52.95
1318.29,42.96,51.48
1466.61,38.61,46.27
1422.54,39.81,47.71
1288.92,43.93,52.65
1256.48,45.07,54.01
1553.57,36.45,43.69
1366.84,41.43,49.65
1283.95,44.1,52.86
1343.47,42.15,50.52
1546.16,36.63,43.89
1390.91,40.71,48.79
